c This file is generated by _findSolu
c Generated on Mon Nov  9 17:04:38 2015
p cnf 213 551
-1 -3 -19 0
1 19 0
3 19 0
-3 -4 -16 0
3 16 0
4 16 0
-2 -35 -18 0
2 18 0
35 18 0
-5 -35 -17 0
5 17 0
35 17 0
-22 -61 -14 0
22 14 0
61 14 0
-17 -17 -15 0
17 15 0
17 15 0
6 20 0
-6 -20 0
7 21 0
-7 -21 0
-1 -20 23 0
1 -23 0
20 -23 0
-19 -6 24 0
19 -24 0
6 -24 0
-4 -20 25 0
4 -25 0
20 -25 0
-19 -6 26 0
19 -26 0
6 -26 0
-23 -21 27 0
23 -27 0
21 -27 0
-24 -7 28 0
24 -28 0
7 -28 0
-25 -21 29 0
25 -29 0
21 -29 0
-26 -7 30 0
26 -30 0
7 -30 0
27 28 -31 0
-27 31 0
-28 31 0
29 31 -32 0
-29 32 0
-31 32 0
32 30 -22 0
-32 22 0
-30 22 0
8 33 0
-8 -33 0
9 34 0
-9 -34 0
-1 -33 36 0
1 -36 0
33 -36 0
-16 -8 37 0
16 -37 0
8 -37 0
-4 -33 38 0
4 -38 0
33 -38 0
-16 -8 39 0
16 -39 0
8 -39 0
-36 -34 40 0
36 -40 0
34 -40 0
-37 -9 41 0
37 -41 0
9 -41 0
-38 -34 42 0
38 -42 0
34 -42 0
-39 -9 43 0
39 -43 0
9 -43 0
40 41 -44 0
-40 44 0
-41 44 0
42 44 -45 0
-42 45 0
-44 45 0
45 43 -35 0
-45 35 0
-43 35 0
10 46 0
-10 -46 0
11 47 0
-11 -47 0
-1 -46 49 0
1 -49 0
46 -49 0
-16 -10 50 0
16 -50 0
10 -50 0
-4 -46 51 0
4 -51 0
46 -51 0
-16 -10 52 0
16 -52 0
10 -52 0
-49 -47 53 0
49 -53 0
47 -53 0
-50 -11 54 0
50 -54 0
11 -54 0
-51 -47 55 0
51 -55 0
47 -55 0
-52 -11 56 0
52 -56 0
11 -56 0
53 54 -57 0
-53 57 0
-54 57 0
55 57 -58 0
-55 58 0
-57 58 0
58 56 -48 0
-58 48 0
-56 48 0
12 59 0
-12 -59 0
13 60 0
-13 -60 0
-1 -59 62 0
1 -62 0
59 -62 0
-18 -12 63 0
18 -63 0
12 -63 0
-4 -59 64 0
4 -64 0
59 -64 0
-18 -12 65 0
18 -65 0
12 -65 0
-62 -60 66 0
62 -66 0
60 -66 0
-63 -13 67 0
63 -67 0
13 -67 0
-64 -60 68 0
64 -68 0
60 -68 0
-65 -13 69 0
65 -69 0
13 -69 0
66 67 -70 0
-66 70 0
-67 70 0
68 70 -71 0
-68 71 0
-70 71 0
71 69 -61 0
-71 61 0
-69 61 0
1 0
2 0
-3 0
-4 0
5 0
14 0
15 0
c New duplicated circuit:
-72 -74 -90 0
72 90 0
74 90 0
-74 -75 -87 0
74 87 0
75 87 0
-73 -106 -89 0
73 89 0
106 89 0
-76 -106 -88 0
76 88 0
106 88 0
-93 -132 -85 0
93 85 0
132 85 0
-88 -88 -86 0
88 86 0
88 86 0
77 91 0
-77 -91 0
78 92 0
-78 -92 0
-72 -91 94 0
72 -94 0
91 -94 0
-90 -77 95 0
90 -95 0
77 -95 0
-75 -91 96 0
75 -96 0
91 -96 0
-90 -77 97 0
90 -97 0
77 -97 0
-94 -92 98 0
94 -98 0
92 -98 0
-95 -78 99 0
95 -99 0
78 -99 0
-96 -92 100 0
96 -100 0
92 -100 0
-97 -78 101 0
97 -101 0
78 -101 0
98 99 -102 0
-98 102 0
-99 102 0
100 102 -103 0
-100 103 0
-102 103 0
103 101 -93 0
-103 93 0
-101 93 0
79 104 0
-79 -104 0
80 105 0
-80 -105 0
-72 -104 107 0
72 -107 0
104 -107 0
-87 -79 108 0
87 -108 0
79 -108 0
-75 -104 109 0
75 -109 0
104 -109 0
-87 -79 110 0
87 -110 0
79 -110 0
-107 -105 111 0
107 -111 0
105 -111 0
-108 -80 112 0
108 -112 0
80 -112 0
-109 -105 113 0
109 -113 0
105 -113 0
-110 -80 114 0
110 -114 0
80 -114 0
111 112 -115 0
-111 115 0
-112 115 0
113 115 -116 0
-113 116 0
-115 116 0
116 114 -106 0
-116 106 0
-114 106 0
81 117 0
-81 -117 0
82 118 0
-82 -118 0
-72 -117 120 0
72 -120 0
117 -120 0
-87 -81 121 0
87 -121 0
81 -121 0
-75 -117 122 0
75 -122 0
117 -122 0
-87 -81 123 0
87 -123 0
81 -123 0
-120 -118 124 0
120 -124 0
118 -124 0
-121 -82 125 0
121 -125 0
82 -125 0
-122 -118 126 0
122 -126 0
118 -126 0
-123 -82 127 0
123 -127 0
82 -127 0
124 125 -128 0
-124 128 0
-125 128 0
126 128 -129 0
-126 129 0
-128 129 0
129 127 -119 0
-129 119 0
-127 119 0
83 130 0
-83 -130 0
84 131 0
-84 -131 0
-72 -130 133 0
72 -133 0
130 -133 0
-89 -83 134 0
89 -134 0
83 -134 0
-75 -130 135 0
75 -135 0
130 -135 0
-89 -83 136 0
89 -136 0
83 -136 0
-133 -131 137 0
133 -137 0
131 -137 0
-134 -84 138 0
134 -138 0
84 -138 0
-135 -131 139 0
135 -139 0
131 -139 0
-136 -84 140 0
136 -140 0
84 -140 0
137 138 -141 0
-137 141 0
-138 141 0
139 141 -142 0
-139 142 0
-141 142 0
142 140 -132 0
-142 132 0
-140 132 0
6 -77 0
-6 77 0
7 -78 0
-7 78 0
8 -79 0
-8 79 0
9 -80 0
-9 80 0
10 -81 0
-10 81 0
11 -82 0
-11 82 0
12 -83 0
-12 83 0
13 -84 0
-13 84 0
-72 0
-73 0
74 0
75 0
76 0
-85 0
-86 0
c New duplicated circuit:
-143 -145 -161 0
143 161 0
145 161 0
-145 -146 -158 0
145 158 0
146 158 0
-144 -177 -160 0
144 160 0
177 160 0
-147 -177 -159 0
147 159 0
177 159 0
-164 -203 -156 0
164 156 0
203 156 0
-159 -159 -157 0
159 157 0
159 157 0
148 162 0
-148 -162 0
149 163 0
-149 -163 0
-143 -162 165 0
143 -165 0
162 -165 0
-161 -148 166 0
161 -166 0
148 -166 0
-146 -162 167 0
146 -167 0
162 -167 0
-161 -148 168 0
161 -168 0
148 -168 0
-165 -163 169 0
165 -169 0
163 -169 0
-166 -149 170 0
166 -170 0
149 -170 0
-167 -163 171 0
167 -171 0
163 -171 0
-168 -149 172 0
168 -172 0
149 -172 0
169 170 -173 0
-169 173 0
-170 173 0
171 173 -174 0
-171 174 0
-173 174 0
174 172 -164 0
-174 164 0
-172 164 0
150 175 0
-150 -175 0
151 176 0
-151 -176 0
-143 -175 178 0
143 -178 0
175 -178 0
-158 -150 179 0
158 -179 0
150 -179 0
-146 -175 180 0
146 -180 0
175 -180 0
-158 -150 181 0
158 -181 0
150 -181 0
-178 -176 182 0
178 -182 0
176 -182 0
-179 -151 183 0
179 -183 0
151 -183 0
-180 -176 184 0
180 -184 0
176 -184 0
-181 -151 185 0
181 -185 0
151 -185 0
182 183 -186 0
-182 186 0
-183 186 0
184 186 -187 0
-184 187 0
-186 187 0
187 185 -177 0
-187 177 0
-185 177 0
152 188 0
-152 -188 0
153 189 0
-153 -189 0
-143 -188 191 0
143 -191 0
188 -191 0
-158 -152 192 0
158 -192 0
152 -192 0
-146 -188 193 0
146 -193 0
188 -193 0
-158 -152 194 0
158 -194 0
152 -194 0
-191 -189 195 0
191 -195 0
189 -195 0
-192 -153 196 0
192 -196 0
153 -196 0
-193 -189 197 0
193 -197 0
189 -197 0
-194 -153 198 0
194 -198 0
153 -198 0
195 196 -199 0
-195 199 0
-196 199 0
197 199 -200 0
-197 200 0
-199 200 0
200 198 -190 0
-200 190 0
-198 190 0
154 201 0
-154 -201 0
155 202 0
-155 -202 0
-143 -201 204 0
143 -204 0
201 -204 0
-160 -154 205 0
160 -205 0
154 -205 0
-146 -201 206 0
146 -206 0
201 -206 0
-160 -154 207 0
160 -207 0
154 -207 0
-204 -202 208 0
204 -208 0
202 -208 0
-205 -155 209 0
205 -209 0
155 -209 0
-206 -202 210 0
206 -210 0
202 -210 0
-207 -155 211 0
207 -211 0
155 -211 0
208 209 -212 0
-208 212 0
-209 212 0
210 212 -213 0
-210 213 0
-212 213 0
213 211 -203 0
-213 203 0
-211 203 0
6 -148 0
-6 148 0
7 -149 0
-7 149 0
8 -150 0
-8 150 0
9 -151 0
-9 151 0
10 -152 0
-10 152 0
11 -153 0
-11 153 0
12 -154 0
-12 154 0
13 -155 0
-13 155 0
-143 0
-144 0
145 0
-146 0
-147 0
-156 0
-157 0
